[[72, 81, 71, 80, 70, 69, 78, 79, 88, 89, 90, 99, 98, 97, 96, 87], [95, 86, 77, 76, 85, 84, 94, 93, 92, 91, 83, 82, 73], [74, 75, 67, 68, 66, 65, 64, 55, 56, 57, 58, 59, 49, 60, 51, 50], [41, 32, 40, 39, 48, 47, 46, 38, 37, 29, 31, 30, 28], [19, 20, 21, 22, 13, 12, 11, 10, 2, 3, 4], [14, 5, 6, 7, 8, 9, 18, 17, 16, 15, 23, 24, 25, 26, 27], [35, 36, 44, 34, 33, 42, 43, 45, 52, 53, 54, 63, 61, 62]]